c Random generated cnf formula, satisfiable: true
p cnf 10 50
-10 3 5 0
-2 3 8 0
1 2 -8 0
3 -2 6 0
9 3 8 0
-2 8 3 0
10 -3 5 0
-2 -4 -7 0
1 -5 -9 0
4 1 5 0
1 -8 6 0
5 -10 -3 0
8 -9 -7 0
-6 -1 5 0
10 8 4 0
-10 1 8 0
-6 -8 7 0
-1 5 -10 0
-9 3 -6 0
-9 4 -7 0
9 -5 -6 0
-4 1 -10 0
-3 5 -1 0
-6 -7 -9 0
9 -2 1 0
7 -9 -2 0
-1 7 5 0
6 1 -9 0
6 7 -10 0
-4 -3 5 0
1 -2 -10 0
4 -2 -8 0
1 9 -7 0
-9 -5 -4 0
4 9 -6 0
-8 -2 -5 0
5 7 -4 0
-6 8 -2 0
-3 -6 -4 0
8 -2 3 0
-1 -10 2 0
-5 1 -7 0
-2 -3 1 0
6 2 -5 0
10 -2 -7 0
2 -9 1 0
7 5 10 0
4 -3 8 0
-10 3 -2 0
-5 6 1 0
